sat-intances/2.param.solution
language ESSENCE' 1.0
letting actionFrom be [0, 0, 2, 0, 2, 2, 3, 2, 3, 2]
letting actionTo be [2, 2, 3, 2, 3, 1, 2, 1, 2, 1]
letting actionTypes be [1, 1, 4, 1, 4, 2, 5, 2, 5, 2]
letting pointers be [[0, 1, 2, 2, 3, 3, 3, 3, 3, 3, 3;int(0..10)], 
[0, 0, 0, 0, 0, 0, 1, 1, 2, 2, 3;int(0..10)];int(0..1)]
letting statePlaces be [[-1, 3, 2, 2, 1, 1, 1, 2, 2, 3, 3;int(0..10)], 
[-1, -1, -1, 2, 2, 1, 1, 1, 1, 1, 1;int(0..10)], 
[-1, -1, -1, -1, -1, -1, -1, -1, -1, -1, -1;int(0..10)];int(2..4)]
